Minimize
  - 6 y_0 - 3 y_1 - 6 y_2 - 6 y_4 - 4 y_6 - 4 y_7 - 4 y_8 - 5 y_9 - 5 y_10
   - 2 y_11 - 4 y_12 - 4 y_13 - 7 y_14 - 8 y_15 - 3 y_16 - 5 y_18 - 7 y_19
   - 2 y_20 - 5 y_21 - 5 y_22 - 4 y_23 - 3 y_24 - 7 y_25 - 4 y_26 - 6 y_27
   - 4 y_28 - 5 y_29 - 4 y_30 - 6 y_31 - 3 y_32 - 7 y_33 - 4 y_34 - 5 y_35
   - 7 y_36 - 2 y_37 - 2 y_38 - 7 y_39 - 7 y_40 - 7 y_41 - 4 y_42 - 7 y_43
   - 5 y_44 - 4 y_45 - 8 y_46 - 5 y_47 - 2 y_48 - 7 y_49 + 231 Constant
Subject To
 c_0: y_37 = 1
 c_1_0: y_0 + y_27 + y_33 + y_36 + y_40 + y_43 + y_49 >= 1
 c_1_1: y_1 + y_16 + y_23 + y_30 + y_32 + y_34 + y_37 + y_42 + y_48 >= 1
 c_1_2: y_2 + y_27 + y_41 >= 1
 c_1_3: y_3 + y_5 + y_17 + y_38 + y_48 >= 1
 c_1_4: y_4 + y_35 + y_44 >= 1
 c_1_5: y_3 + y_5 + y_17 + y_38 + y_48 >= 1
 c_1_6: y_6 + y_7 + y_9 + y_26 + y_30 + y_42 >= 1
 c_1_7: y_6 + y_7 + y_8 + y_26 + y_28 + y_45 >= 1
 c_1_8: y_7 + y_8 + y_26 + y_27 + y_28 + y_45 >= 1
 c_1_9: y_6 + y_9 + y_23 + y_30 + y_42 >= 1
 c_1_10: y_10 + y_21 + y_29 + y_47 >= 1
 c_1_11: y_11 + y_12 + y_20 + y_38 >= 1
 c_1_12: y_11 + y_12 + y_20 >= 1
 c_1_13: y_13 + y_16 + y_32 + y_34 >= 1
 c_1_14: y_14 + y_15 + y_19 + y_25 + y_39 >= 1
 c_1_15: y_14 + y_15 + y_19 + y_25 >= 1
 c_1_16: y_1 + y_13 + y_16 + y_23 + y_32 + y_34 + y_37 + y_42 + y_48 >= 1
 c_1_17: y_3 + y_5 + y_17 + y_37 + y_38 + y_48 >= 1
 c_1_18: y_18 + y_22 + y_31 >= 1
 c_1_19: y_14 + y_15 + y_19 + y_25 >= 1
 c_1_20: y_11 + y_12 + y_20 >= 1
 c_1_21: y_10 + y_21 + y_29 + y_47 >= 1
 c_1_22: y_18 + y_22 + y_31 >= 1
 c_1_23: y_1 + y_9 + y_16 + y_23 + y_30 + y_32 + y_34 + y_37 + y_42 + y_48
   >= 1
 c_1_24: y_24 >= 1
 c_1_25: y_14 + y_15 + y_19 + y_25 + y_39 >= 1
 c_1_26: y_6 + y_7 + y_8 + y_26 + y_28 + y_30 + y_45 >= 1
 c_1_27: y_0 + y_2 + y_8 + y_27 + y_28 + y_33 + y_40 + y_41 + y_45 + y_49
   >= 1
 c_1_28: y_7 + y_8 + y_26 + y_27 + y_28 + y_45 >= 1
 c_1_29: y_10 + y_21 + y_29 + y_47 >= 1
 c_1_30: y_1 + y_6 + y_9 + y_23 + y_26 + y_30 + y_37 + y_42 >= 1
 c_1_31: y_18 + y_22 + y_31 >= 1
 c_1_32: y_1 + y_13 + y_16 + y_23 + y_32 + y_34 + y_37 + y_42 + y_48 >= 1
 c_1_33: y_0 + y_27 + y_33 + y_36 + y_40 + y_49 >= 1
 c_1_34: y_1 + y_13 + y_16 + y_23 + y_32 + y_34 + y_42 >= 1
 c_1_35: y_4 + y_35 + y_44 >= 1
 c_1_36: y_0 + y_33 + y_36 + y_40 + y_43 + y_46 + y_49 >= 1
 c_1_37: y_1 + y_16 + y_17 + y_23 + y_30 + y_32 + y_37 + y_42 + y_48 >= 1
 c_1_38: y_3 + y_5 + y_11 + y_17 + y_38 >= 1
 c_1_39: y_14 + y_25 + y_39 + y_41 >= 1
 c_1_40: y_0 + y_27 + y_33 + y_36 + y_40 + y_43 + y_46 + y_49 >= 1
 c_1_41: y_2 + y_27 + y_39 + y_41 >= 1
 c_1_42: y_1 + y_6 + y_9 + y_16 + y_23 + y_30 + y_32 + y_34 + y_37 + y_42
   >= 1
 c_1_43: y_0 + y_36 + y_40 + y_43 + y_46 + y_49 >= 1
 c_1_44: y_4 + y_35 + y_44 >= 1
 c_1_45: y_7 + y_8 + y_26 + y_27 + y_28 + y_45 >= 1
 c_1_46: y_36 + y_40 + y_43 + y_46 + y_49 >= 1
 c_1_47: y_10 + y_21 + y_29 + y_47 >= 1
 c_1_48: y_1 + y_3 + y_5 + y_16 + y_17 + y_23 + y_32 + y_37 + y_48 >= 1
 c_1_49: y_0 + y_27 + y_33 + y_36 + y_40 + y_43 + y_46 + y_49 >= 1
Bounds
 Constant = 1
Binaries
 y_0 y_1 y_2 y_3 y_4 y_5 y_6 y_7 y_8 y_9 y_10 y_11 y_12 y_13 y_14 y_15 y_16
 y_17 y_18 y_19 y_20 y_21 y_22 y_23 y_24 y_25 y_26 y_27 y_28 y_29 y_30 y_31
 y_32 y_33 y_34 y_35 y_36 y_37 y_38 y_39 y_40 y_41 y_42 y_43 y_44 y_45 y_46
 y_47 y_48 y_49
End
